c This is an instance of the exact track of PACE 2020 Challenge, see https://pacechallenge.org/2020/ 
c TYPE: infrastracture 
c ORIGIN: gitlab.com/rvb/mwcarp-ob 
c DESCRIPTION: a road network from the Ob generator by René van Bevern, Christian Komusiewicz, and Manuel Sorge (cities that are divided into several components by a river) 
p tdp 163 278
1 70
1 72
1 82
70 48
70 47
70 81
70 69
4 3
4 5
4 16
3 2
3 24
6 7
6 18
6 5
7 8
7 19
18 17
18 27
18 19
21 35
21 14
21 22
35 40
35 36
45 44
45 59
45 46
44 43
44 58
44 38
66 65
66 57
66 67
65 56
65 64
65 91
73 85
73 72
73 49
73 74
73 84
85 84
85 74
85 86
85 100
85 99
80 79
80 93
80 69
79 92
79 67
82 96
82 83
82 81
96 95
96 97
96 110
83 72
83 97
83 84
92 91
92 93
92 121
109 108
109 95
109 124
109 110
108 94
108 123
108 107
113 112
113 114
113 128
112 111
112 128
112 98
117 134
117 104
117 116
134 133
134 147
132 116
132 131
132 133
132 145
116 102
139 155
139 125
139 138
139 140
155 154
155 156
145 146
145 144
145 161
146 147
146 162
146 133
148 135
148 149
135 118
135 136
149 136
149 150
151 152
151 121
151 150
152 153
152 122
154 138
154 153
158 159
159 160
159 143
160 144
160 161
162 161
162 163
72 48
2 15
2 71
24 23
24 25
5 17
17 16
17 26
8 9
8 20
9 29
9 30
29 20
29 28
29 48
29 30
30 49
30 31
10 32
10 11
32 51
32 33
32 11
11 12
12 33
12 13
33 34
33 52
13 34
34 53
14 15
14 71
15 23
23 22
23 37
16 25
25 26
25 38
26 27
27 28
27 39
19 28
19 20
22 36
37 36
37 38
37 42
28 47
39 38
39 46
48 47
48 49
49 50
31 50
51 52
51 62
53 52
53 78
40 41
40 54
36 41
41 42
41 55
54 63
54 55
42 43
42 56
43 57
57 56
57 58
58 67
58 59
46 59
46 60
46 47
59 67
59 60
59 68
60 69
50 61
61 75
62 76
78 77
78 89
63 64
63 90
55 64
55 56
67 68
69 68
76 77
76 87
74 75
75 86
77 88
93 107
93 94
81 95
97 111
97 98
84 98
87 102
87 88
102 101
102 115
102 103
88 89
88 103
89 104
90 105
90 91
105 118
105 106
91 106
107 122
94 95
110 125
110 111
111 126
98 99
100 101
101 115
115 130
115 131
103 104
118 119
106 120
120 119
120 121
120 137
124 123
124 125
124 138
125 126
128 127
128 141
128 142
114 130
130 131
130 129
130 144
119 136
136 137
121 122
122 123
123 153
126 140
126 127
140 156
140 141
127 141
141 156
141 157
141 142
147 163
137 150
156 157
143 129
143 144
